DATASET = "thpack1";
INSTANCE = "071";

WIDTH = 233;
HEIGHT = 220;
LENGTH = 587;

NO_OF_SHAPES = 3;
size = [|
  99,64,62 |
  110,43,37 |
  96,73,50 |
|];

verticality = [|
  1,1,1 |
  0,1,1 |
  1,1,1 |
|];

box_count = [
  38,
  30,
  28,
];
